SDVRP instances/custom_instances/p01_24_split0.vrp
NAME:p01_24_split
BEST_KNOWN: 0
COMMENT: 0
DIMENSION: 219
CAPACITY: 160
EDGE_WEIGHT_FORMAT: FUNCTION
EDGE_WEIGHT_TYPE: EXACT_2D
NODE_COORD_SECTION
1 0.00000 0.00000
2 -4 11
3 -4 11
4 -4 11
5 -4 11
6 -4 11
7 -4 11
8 9 -33
9 9 -33
10 25 -21
11 25 -21
12 25 -21
13 25 -21
14 25 -21
15 14 -1
16 14 -1
17 14 -1
18 14 -1
19 14 -1
20 14 -1
21 -17 22
22 -17 22
23 -17 22
24 -17 22
25 -17 22
26 44 16
27 44 16
28 44 16
29 44 16
30 15 -38
31 15 -38
32 15 -38
33 15 -38
34 15 -38
35 -46 50
36 -46 50
37 -46 50
38 -46 50
39 -46 50
40 -40 25
41 -40 25
42 -40 25
43 -11 17
44 -11 17
45 -11 17
46 35 -39
47 35 -39
48 -11 32
49 -11 32
50 -11 32
51 -11 32
52 -11 32
53 -11 32
54 -48 -12
55 -48 -12
56 -48 -12
57 -48 -12
58 -4 3
59 -4 3
60 -4 3
61 -4 3
62 -4 3
63 -30 -8
64 -30 -8
65 -17 -3
66 27 41
67 27 41
68 27 41
69 27 41
70 -13 -27
71 -13 -27
72 -13 -27
73 -13 -27
74 -26 29
75 -26 29
76 -26 29
77 -26 29
78 -26 29
79 11 45
80 11 45
81 11 45
82 11 45
83 11 45
84 -36 -11
85 -36 -11
86 -36 -11
87 -36 -11
88 -36 -11
89 32 -5
90 32 -5
91 32 -5
92 32 -5
93 32 -5
94 -47 -2
95 -47 -2
96 -47 -2
97 -47 -2
98 -47 -2
99 -1 11
100 -1 11
101 36 -10
102 36 -10
103 36 -10
104 36 -10
105 36 -10
106 36 -10
107 -48 -14
108 -48 -14
109 -48 -14
110 -48 -14
111 -49 21
112 -49 21
113 -49 21
114 -49 21
115 -49 21
116 -49 21
117 -33 -28
118 -33 -28
119 -44 -40
120 -44 -40
121 -44 -40
122 -44 -40
123 -44 -40
124 -44 -40
125 23 50
126 23 50
127 23 50
128 23 50
129 9 8
130 9 8
131 9 8
132 9 8
133 9 8
134 6 -2
135 6 -2
136 6 -2
137 6 -2
138 6 -2
139 29 17
140 29 17
141 27 -24
142 27 -24
143 27 -24
144 10 -9
145 10 -9
146 10 -9
147 -5 -8
148 -5 -8
149 -5 -8
150 38 -18
151 38 -18
152 38 -18
153 38 -18
154 38 -18
155 -46 -40
156 -46 -40
157 -46 -40
158 -46 -40
159 -46 -40
160 12 23
161 12 23
162 12 23
163 12 23
164 12 23
165 12 23
166 21 -8
167 21 -8
168 21 -8
169 21 -8
170 -46 36
171 -46 36
172 -46 36
173 -15 -24
174 -15 -24
175 -15 -24
176 -15 -24
177 -15 -24
178 -17 -24
179 -17 -24
180 -17 -24
181 -17 -24
182 37 17
183 37 17
184 37 17
185 37 17
186 37 17
187 37 17
188 -34 -41
189 -34 -41
190 -34 -41
191 -34 -41
192 -34 -41
193 -34 -41
194 -42 16
195 -42 16
196 -42 16
197 -42 16
198 -42 16
199 -42 16
200 40 -33
201 40 -33
202 40 -33
203 40 -33
204 -14 43
205 -14 43
206 -14 43
207 33 32
208 33 32
209 33 32
210 33 32
211 33 32
212 33 32
213 -49 -30
214 -49 -30
215 -49 -30
216 -49 -30
217 -49 -30
218 -49 -30
219 -49 -30
DEMAND_SECTION
1 0
2 32
3 8
4 2
5 2
6 2
7 1
8 32
9 1
10 16
11 2
12 2
13 2
14 1
15 32
16 32
17 8
18 2
19 2
20 1
21 32
22 16
23 2
24 2
25 1
26 32
27 8
28 2
29 2
30 32
31 32
32 8
33 2
34 2
35 32
36 32
37 2
38 2
39 1
40 32
41 32
42 8
43 32
44 32
45 16
46 32
47 16
48 32
49 8
50 2
51 2
52 2
53 1
54 32
55 16
56 2
57 1
58 32
59 16
60 8
61 2
62 2
63 32
64 16
65 32
66 32
67 32
68 8
69 1
70 32
71 16
72 2
73 1
74 32
75 8
76 2
77 2
78 2
79 16
80 8
81 2
82 2
83 2
84 32
85 32
86 2
87 2
88 1
89 32
90 32
91 8
92 2
93 1
94 32
95 32
96 2
97 2
98 2
99 32
100 32
101 32
102 16
103 8
104 2
105 2
106 1
107 32
108 16
109 8
110 1
111 32
112 8
113 2
114 2
115 2
116 1
117 16
118 8
119 32
120 16
121 2
122 2
123 2
124 1
125 32
126 32
127 8
128 2
129 16
130 8
131 2
132 2
133 1
134 32
135 32
136 8
137 2
138 2
139 16
140 8
141 32
142 32
143 1
144 32
145 32
146 1
147 32
148 16
149 8
150 32
151 16
152 8
153 2
154 1
155 32
156 16
157 2
158 2
159 2
160 32
161 32
162 8
163 2
164 2
165 2
166 32
167 2
168 2
169 2
170 32
171 32
172 2
173 32
174 16
175 8
176 2
177 2
178 32
179 8
180 2
181 1
182 16
183 8
184 2
185 2
186 2
187 1
188 32
189 32
190 8
191 2
192 2
193 2
194 32
195 16
196 8
197 2
198 2
199 2
200 32
201 32
202 8
203 1
204 16
205 8
206 1
207 32
208 8
209 2
210 2
211 2
212 1
213 32
214 16
215 8
216 2
217 2
218 2
219 1
DEPOT_SECTION
1
-1
EOF