SDVRP instances/custom_instances/p01_24_split0.sol
218 -3 6 4 5 1 2 42 44 43 -10 13 12 200 199 201 202 45 46 142 140 -11 9 141 152 151 153 150 149 102 103 105 104 168 167 166 165 -14 19 18 17 91 88 89 90 92 101 100 -20 23 21 76 75 73 205 203 204 52 51 47 48 50 49 -24 22 74 77 36 38 34 35 37 170 169 171 41 -32 31 29 30 33 8 7 146 147 -39 40 115 110 111 114 113 112 196 195 193 197 -61 60 57 58 59 98 99 -63 55 53 54 56 109 107 108 106 83 87 -64 62 96 97 95 94 93 194 198 -72 69 70 71 172 174 176 173 177 178 180 179 148 -80 79 81 82 78 126 127 125 124 163 159 162 161 129 130 131 -84 86 85 212 218 215 213 214 216 217 156 154 155 158 157 -116 117 119 118 122 123 120 121 192 187 191 188 189 190 175 -128 132 138 139 181 182 184 185 183 186 28 27 26 25 16 15 137 136 -133 135 134 144 145 143 -160 164 65 67 66 68 211 206 208 209 207 210 0 





OBJ=
1674.085
BEST_KNOWN=
0.000